certificates/rado_a12_c92_N29.cnf
c Rad2 upper bound instance: x1 + 12*x2 - x3 = 92, interval [1,29]
p cnf 29 138
1 5 8 0
-1 -5 -8 0
1 9 17 0
-1 -9 -17 0
1 10 29 0
-1 -10 -29 0
2 6 8 0
-2 -6 -8 0
2 9 18 0
-2 -9 -18 0
3 7 8 0
-3 -7 -8 0
3 9 19 0
-3 -9 -19 0
4 8 0
-4 -8 0
4 9 20 0
-4 -9 -20 0
5 8 9 0
-5 -8 -9 0
5 9 21 0
-5 -9 -21 0
6 8 10 0
-6 -8 -10 0
6 9 22 0
-6 -9 -22 0
7 8 11 0
-7 -8 -11 0
7 9 23 0
-7 -9 -23 0
8 12 0
-8 -12 0
8 9 24 0
-8 -9 -24 0
1 7 9 0
-1 -7 -9 0
8 9 13 0
-8 -9 -13 0
9 25 0
-9 -25 0
2 7 10 0
-2 -7 -10 0
8 10 14 0
-8 -10 -14 0
9 10 26 0
-9 -10 -26 0
3 7 11 0
-3 -7 -11 0
8 11 15 0
-8 -11 -15 0
9 11 27 0
-9 -11 -27 0
4 7 12 0
-4 -7 -12 0
8 12 16 0
-8 -12 -16 0
9 12 28 0
-9 -12 -28 0
5 7 13 0
-5 -7 -13 0
8 13 17 0
-8 -13 -17 0
9 13 29 0
-9 -13 -29 0
6 7 14 0
-6 -7 -14 0
8 14 18 0
-8 -14 -18 0
7 15 0
-7 -15 0
8 15 19 0
-8 -15 -19 0
7 8 16 0
-7 -8 -16 0
8 16 20 0
-8 -16 -20 0
7 9 17 0
-7 -9 -17 0
8 17 21 0
-8 -17 -21 0
7 10 18 0
-7 -10 -18 0
8 18 22 0
-8 -18 -22 0
7 11 19 0
-7 -11 -19 0
8 19 23 0
-8 -19 -23 0
7 12 20 0
-7 -12 -20 0
8 20 24 0
-8 -20 -24 0
1 6 21 0
-1 -6 -21 0
7 13 21 0
-7 -13 -21 0
8 21 25 0
-8 -21 -25 0
2 6 22 0
-2 -6 -22 0
7 14 22 0
-7 -14 -22 0
8 22 26 0
-8 -22 -26 0
3 6 23 0
-3 -6 -23 0
7 15 23 0
-7 -15 -23 0
8 23 27 0
-8 -23 -27 0
4 6 24 0
-4 -6 -24 0
7 16 24 0
-7 -16 -24 0
8 24 28 0
-8 -24 -28 0
5 6 25 0
-5 -6 -25 0
7 17 25 0
-7 -17 -25 0
8 25 29 0
-8 -25 -29 0
6 26 0
-6 -26 0
7 18 26 0
-7 -18 -26 0
6 7 27 0
-6 -7 -27 0
7 19 27 0
-7 -19 -27 0
6 8 28 0
-6 -8 -28 0
7 20 28 0
-7 -20 -28 0
6 9 29 0
-6 -9 -29 0
7 21 29 0
-7 -21 -29 0
