certificates/rado_a12_c92_N29.drat
-25 6 -29 0
-26 -29 0
7 8 -29 0
8 -29 0
d 7 8 -29 0
-6 -29 0
d -9 -6 -29 0
-29 0
9 0
-25 0
8 0
-4 0
-12 0
-5 0
-24 0
-13 0
7 0
6 0
-3 0
-11 0
-1 0
-15 0
-16 0
-14 0
-23 0
-17 0
-27 0
-26 0
-22 0
-2 0
-10 0
-28 0
0
